VALOR = 150;
MAXV = 200;
MAXN= 250;
MCAP = 1000;
CA = 5;
MinD = 3;
MaxD = 6;
MinB = 100000;
%MinB = 1000;
preciosVeg = [|110,120|130,130|110,140|120,110|100,120|90,100|];
preciosNoVeg = [|130,110,115|110,90,115|130,100,95|120,120,125|150,110,105|140,80,135|];

durezaVeg = [8.8,6.1];
durezaNoVeg = [2.0,4.2,5.0];

cantidadVeg = [500,500];
cantidadNoVeg = [500,500,500];
K = 3;